data;

set A := 637324 516508 409966 38217 320723 4393 108652 46178 776631 946098 821434 869748 658715 732050 315423 925192 797309 720208 272670 459632 724276 202588 866420 880393 192881 315535 886935 74937 703104 891245 178998 245042 163334 104867 106941 181167 441730 750154 961231 856180 481742 494820 125644 624081 663324 578396 304651 626013 374203 14728 21854 994940 929745 4648 851922 336730;
param T := 14000000;

end;
